NAME : KROA199B
TYPE : PDTSP
DIMENSION : 199
EDGE_WEIGHT_TYPE : EUC_2D
NODE_COORD_SECTION
1 1357 1905
2 2650 802
3 1774 107
4 1307 964
5 3806 746
6 2687 1353
7 43 1957
8 3092 1668
9 185 1542
10 834 629
11 40 462
12 1183 1391
13 2048 1628
14 1097 643
15 1838 1732
16 234 1118
17 3314 1881
18 737 1285
19 779 777
20 2312 1949
21 2576 189
22 3078 1541
23 2781 478
24 705 1812
25 3409 1917
26 323 1714
27 1660 1556
28 3729 1188
29 693 1383
30 2361 640
31 2433 1538
32 554 1825
33 913 317
34 3586 1909
35 2636 727
36 1000 457
37 482 1337
38 3704 1082
39 3635 1174
40 1362 1526
41 2049 417
42 2552 1909
43 3939 640
44 219 898
45 812 351
46 901 1552
47 2513 1572
48 242 584
49 826 1226
50 3278 799
51 86 1065
52 14 454
53 1327 1893
54 2773 1286
55 2469 1838
56 3835 963
57 1031 428
58 3853 1712
59 1868 197
60 1544 863
61 457 1607
62 3174 1064
63 192 1004
64 2318 1925
65 2232 1374
66 396 828
67 2365 1649
68 2499 658
69 1410 307
70 2990 214
71 3646 1018
72 3394 1028
73 1779 90
74 1058 372
75 2933 1459
76 3099 173
77 2178 978
78 138 1610
79 2082 1753
80 2302 1127
81 805 272
82 22 1617
83 3213 1085
84 99 536
85 1533 1780
86 3564 676
87 29 6
88 3808 1375
89 2221 291
90 3499 1885
91 3124 408
92 781 671
93 1027 1041
94 3249 378
95 3297 491
96 213 220
97 721 186
98 3736 1542
99 868 731
100 960 303
101 1380 939
102 2848 96
103 3510 1671
104 457 334
105 3888 666
106 984 965
107 2721 1482
108 1286 525
109 2716 1432
110 738 1325
111 1251 1832
112 2728 1698
113 3815 169
114 3683 1533
115 1247 1945
116 123 862
117 1234 1946
118 252 1240
119 611 673
120 2576 1676
121 928 1700
122 53 857
123 1807 1711
124 274 1420
125 2574 946
126 178 24
127 2678 1825
128 1795 962
129 3384 1498
130 3520 1079
131 1256 61
132 1424 1728
133 3913 192
134 3085 1528
135 2573 1969
136 463 1670
137 3875 598
138 298 1513
139 3479 821
140 2542 236
141 3955 1743
142 1323 280
143 3447 1830
144 2936 337
145 1621 1830
146 3373 1646
147 1393 1368
148 3874 1318
149 938 955
150 3022 474
151 2482 1183
152 3854 923
153 376 825
154 2519 135
155 2945 1622
156 953 268
157 2628 1479
158 2097 981
159 890 1846
160 2139 1806
161 2421 1007
162 2290 1810
163 1115 1052
164 2588 302
165 327 265
166 241 341
167 1917 687
168 2991 792
169 2573 599
170 19 674
171 3911 1673
172 872 1559
173 2863 558
174 929 1766
175 839 620
176 3893 102
177 2178 1619
178 3822 899
179 378 1048
180 1178 100
181 2599 901
182 3416 143
183 611 1384
184 3113 885
185 2597 1830
186 2586 1286
187 161 906
188 1429 134
189 742 1025
190 1625 1651
191 1187 706
192 1787 1009
193 22 987
194 3640 43
195 3756 882
196 776 392
197 1724 1642
198 198 1810
199 3950 1558
PICKUP_AND_DELIVERY_SECTION
1 0 0 0 0 0 0
2 0 0 0 0 0 154
3 0 0 0 0 57 0
4 0 0 0 0 163 0
5 0 0 0 0 195 0
6 0 0 0 0 47 0
7 0 0 0 0 0 78
8 0 0 0 0 134 0
9 0 0 0 0 37 0
10 0 0 0 0 0 119
11 0 0 0 0 0 115
12 0 0 0 0 106 0
13 0 0 0 0 0 123
14 0 0 0 0 0 128
15 0 0 0 0 85 0
16 0 0 0 0 0 66
17 0 0 0 0 103 0
18 0 0 0 0 93 0
19 0 0 0 0 149 0
20 0 0 0 0 0 162
21 0 0 0 0 144 0
22 0 0 0 0 181 0
23 0 0 0 0 0 140
24 0 0 0 0 0 60
25 0 0 0 0 177 0
26 0 0 0 0 0 124
27 0 0 0 0 79 0
28 0 0 0 0 50 0
29 0 0 0 0 138 0
30 0 0 0 0 41 0
31 0 0 0 0 127 0
32 0 0 0 0 0 174
33 0 0 0 0 170 0
34 0 0 0 0 58 0
35 0 0 0 0 0 173
36 0 0 0 0 0 101
37 0 0 0 0 0 9
38 0 0 0 0 0 105
39 0 0 0 0 0 83
40 0 0 0 0 0 145
41 0 0 0 0 0 30
42 0 0 0 0 0 55
43 0 0 0 0 72 0
44 0 0 0 0 0 179
45 0 0 0 0 81 0
46 0 0 0 0 0 190
47 0 0 0 0 0 6
48 0 0 0 0 0 87
49 0 0 0 0 110 0
50 0 0 0 0 0 28
51 0 0 0 0 90 0
52 0 0 0 0 0 104
53 0 0 0 0 117 0
54 0 0 0 0 0 161
55 0 0 0 0 42 0
56 0 0 0 0 0 130
57 0 0 0 0 0 3
58 0 0 0 0 0 34
59 0 0 0 0 73 0
60 0 0 0 0 24 0
61 0 0 0 0 0 172
62 0 0 0 0 152 0
63 0 0 0 0 153 0
64 0 0 0 0 0 185
65 0 0 0 0 0 171
66 0 0 0 0 16 0
67 0 0 0 0 0 114
68 0 0 0 0 0 77
69 0 0 0 0 0 100
70 0 0 0 0 113 0
71 0 0 0 0 137 0
72 0 0 0 0 0 43
73 0 0 0 0 0 59
74 0 0 0 0 0 191
75 0 0 0 0 0 135
76 0 0 0 0 89 0
77 0 0 0 0 68 0
78 0 0 0 0 7 0
79 0 0 0 0 0 27
80 0 0 0 0 0 112
81 0 0 0 0 0 45
82 0 0 0 0 193 0
83 0 0 0 0 39 0
84 0 0 0 0 122 0
85 0 0 0 0 0 15
86 0 0 0 0 178 0
87 0 0 0 0 48 0
88 0 0 0 0 98 0
89 0 0 0 0 0 76
90 0 0 0 0 0 51
91 0 0 0 0 94 0
92 0 0 0 0 108 0
93 0 0 0 0 0 18
94 0 0 0 0 0 91
95 0 0 0 0 194 0
96 0 0 0 0 0 166
97 0 0 0 0 196 0
98 0 0 0 0 0 88
99 0 0 0 0 0 175
100 0 0 0 0 69 0
101 0 0 0 0 36 0
102 0 0 0 0 164 0
103 0 0 0 0 0 17
104 0 0 0 0 52 0
105 0 0 0 0 38 0
106 0 0 0 0 0 12
107 0 0 0 0 0 139
108 0 0 0 0 0 92
109 0 0 0 0 0 186
110 0 0 0 0 0 49
111 0 0 0 0 159 0
112 0 0 0 0 80 0
113 0 0 0 0 0 70
114 0 0 0 0 67 0
115 0 0 0 0 11 0
116 0 0 0 0 165 0
117 0 0 0 0 0 53
118 0 0 0 0 0 126
119 0 0 0 0 10 0
120 0 0 0 0 157 0
121 0 0 0 0 0 132
122 0 0 0 0 0 84
123 0 0 0 0 13 0
124 0 0 0 0 26 0
125 0 0 0 0 0 169
126 0 0 0 0 118 0
127 0 0 0 0 0 31
128 0 0 0 0 14 0
129 0 0 0 0 0 146
130 0 0 0 0 56 0
131 0 0 0 0 142 0
132 0 0 0 0 121 0
133 0 0 0 0 182 0
134 0 0 0 0 0 8
135 0 0 0 0 75 0
136 0 0 0 0 198 0
137 0 0 0 0 0 71
138 0 0 0 0 0 29
139 0 0 0 0 107 0
140 0 0 0 0 23 0
141 0 0 0 0 155 0
142 0 0 0 0 0 131
143 0 0 0 0 160 0
144 0 0 0 0 0 21
145 0 0 0 0 40 0
146 0 0 0 0 129 0
147 0 0 0 0 197 0
148 0 0 0 0 0 199
149 0 0 0 0 0 19
150 0 0 0 0 0 176
151 0 0 0 0 0 158
152 0 0 0 0 0 62
153 0 0 0 0 0 63
154 0 0 0 0 2 0
155 0 0 0 0 0 141
156 0 0 0 0 189 0
157 0 0 0 0 0 120
158 0 0 0 0 151 0
159 0 0 0 0 0 111
160 0 0 0 0 0 143
161 0 0 0 0 54 0
162 0 0 0 0 20 0
163 0 0 0 0 0 4
164 0 0 0 0 0 102
165 0 0 0 0 0 116
166 0 0 0 0 96 0
167 0 0 0 0 192 0
168 0 0 0 0 184 0
169 0 0 0 0 125 0
170 0 0 0 0 0 33
171 0 0 0 0 65 0
172 0 0 0 0 61 0
173 0 0 0 0 35 0
174 0 0 0 0 32 0
175 0 0 0 0 99 0
176 0 0 0 0 150 0
177 0 0 0 0 0 25
178 0 0 0 0 0 86
179 0 0 0 0 44 0
180 0 0 0 0 0 188
181 0 0 0 0 0 22
182 0 0 0 0 0 133
183 0 0 0 0 0 187
184 0 0 0 0 0 168
185 0 0 0 0 64 0
186 0 0 0 0 109 0
187 0 0 0 0 183 0
188 0 0 0 0 180 0
189 0 0 0 0 0 156
190 0 0 0 0 46 0
191 0 0 0 0 74 0
192 0 0 0 0 0 167
193 0 0 0 0 0 82
194 0 0 0 0 0 95
195 0 0 0 0 0 5
196 0 0 0 0 0 97
197 0 0 0 0 0 147
198 0 0 0 0 0 136
199 0 0 0 0 148 0
DEPOT_SECTION
1 
-1
EOF
